6902.05
27 27 27 192 56 192 165 192 56 192 16 192 56 192 27 16 16 72 56 27 192 56 16 70 56 192 56 27 16 27 192 56 192 56 16 192 192 56 56 16 56 56 192 56 169 192 192 192 16 56 98 192 72 192 27 192 192 192 192 192 56 192 195 192 56 192 192 192 192 56 192 192 56 27 165 27 27 56 56 27 192 16 27 27 16 27 27 192 56 192 192 16 27 56 16 56 16 192 27 192 192 27 56 27 27 56 192 27 56 98 72 56 27 72 27 192 27 192 192 192 56 16 56 16 56 27 16 27 192 27 56 16 27 27 192 16 192 192 192 27 56 16 16 56 192 192 192 16 192 56 56 192 27 192 192 192 27 56 27 16 192 192 27 56 56 56 192 195 192 56 98 192 56 195 192 16 56 192 56 27 56 27 192 192 192 27 192 56 56 56 192 16 56 56 27 16 27 56 27 27 
